p cnf 324 1
324 0
w 1 0.603944
w 2 1 0
w 2 -1 1
w 3 2 0.771193
w 3 -2 0.7737
w 4 3 0.0668046
w 4 -3 0.124547
w 5 4 0.525898
w 5 -4 0.846061
w 6 5 0.492905
w 6 -5 0.192342
w 7 6 0.777239
w 7 -6 0.55667
w 8 7 1
w 8 -7 0
w 9 8 0.0827244
w 9 -8 0.792752
w 10 9 0.00771285
w 10 -9 0.71466
w 11 10 0.260431
w 11 -10 0.516118
w 12 11 1
w 12 -11 0
w 13 12 0
w 13 -12 1
w 14 13 1
w 14 -13 0
w 15 14 1
w 15 -14 0
w 16 15 0
w 16 -15 1
w 17 16 1
w 17 -16 0
w 18 17 0
w 18 -17 1
w 19 1 0.547264
w 19 -1 0.391421
w 20 19 2 0.324503
w 20 19 -2 0.948091
w 20 -19 2 0.717151
w 20 -19 -2 0.870925
w 21 20 3 0.799876
w 21 20 -3 0.663676
w 21 -20 3 0.542186
w 21 -20 -3 0.807588
w 22 21 4 0
w 22 21 -4 1
w 22 -21 4 1
w 22 -21 -4 0
w 23 22 5 1
w 23 22 -5 0
w 23 -22 5 1
w 23 -22 -5 1
w 24 23 6 0.023556
w 24 23 -6 0.138316
w 24 -23 6 0.210541
w 24 -23 -6 0.376575
w 25 24 7 1
w 25 24 -7 1
w 25 -24 7 1
w 25 -24 -7 0
w 26 25 8 0.774342
w 26 25 -8 0.136667
w 26 -25 8 0.915166
w 26 -25 -8 0.491493
w 27 26 9 0
w 27 26 -9 0
w 27 -26 9 1
w 27 -26 -9 0
w 28 27 10 0
w 28 27 -10 0
w 28 -27 10 1
w 28 -27 -10 1
w 29 28 11 0.50729
w 29 28 -11 0.958577
w 29 -28 11 0.177952
w 29 -28 -11 0.302374
w 30 29 12 0.860032
w 30 29 -12 0.32593
w 30 -29 12 0.886889
w 30 -29 -12 0.0705731
w 31 30 13 0.284762
w 31 30 -13 0.335473
w 31 -30 13 0.278159
w 31 -30 -13 0.495516
w 32 31 14 1
w 32 31 -14 1
w 32 -31 14 0
w 32 -31 -14 0
w 33 32 15 0.291896
w 33 32 -15 0.959733
w 33 -32 15 0.0527201
w 33 -32 -15 0.963164
w 34 33 16 0
w 34 33 -16 0
w 34 -33 16 1
w 34 -33 -16 1
w 35 34 17 0.686348
w 35 34 -17 0.825944
w 35 -34 17 0.915407
w 35 -34 -17 0.8643
w 36 35 18 0
w 36 35 -18 0
w 36 -35 18 0
w 36 -35 -18 1
w 37 19 0
w 37 -19 1
w 38 37 20 1
w 38 37 -20 1
w 38 -37 20 0
w 38 -37 -20 0
w 39 38 21 0.562319
w 39 38 -21 0.840547
w 39 -38 21 0.362357
w 39 -38 -21 0.854215
w 40 39 22 0.415077
w 40 39 -22 0.817379
w 40 -39 22 0.101533
w 40 -39 -22 0.566754
w 41 40 23 0.830353
w 41 40 -23 0.885408
w 41 -40 23 0.786978
w 41 -40 -23 0.516701
w 42 41 24 0.702385
w 42 41 -24 0.381
w 42 -41 24 0.839669
w 42 -41 -24 0.366365
w 43 42 25 1
w 43 42 -25 0
w 43 -42 25 0
w 43 -42 -25 0
w 44 43 26 1
w 44 43 -26 1
w 44 -43 26 0
w 44 -43 -26 0
w 45 44 27 0.870948
w 45 44 -27 0.406277
w 45 -44 27 0.0473736
w 45 -44 -27 0.725163
w 46 45 28 0
w 46 45 -28 1
w 46 -45 28 0
w 46 -45 -28 0
w 47 46 29 1
w 47 46 -29 1
w 47 -46 29 0
w 47 -46 -29 0
w 48 47 30 0.862053
w 48 47 -30 0.0361442
w 48 -47 30 0.465633
w 48 -47 -30 0.228418
w 49 48 31 1
w 49 48 -31 1
w 49 -48 31 1
w 49 -48 -31 0
w 50 49 32 0.0723266
w 50 49 -32 0.0958047
w 50 -49 32 0.982528
w 50 -49 -32 0.380955
w 51 50 33 0.667545
w 51 50 -33 0.251903
w 51 -50 33 0.0678111
w 51 -50 -33 0.714918
w 52 51 34 0.274368
w 52 51 -34 0.177369
w 52 -51 34 0.519607
w 52 -51 -34 0.582459
w 53 52 35 1
w 53 52 -35 1
w 53 -52 35 0
w 53 -52 -35 0
w 54 53 36 0
w 54 53 -36 1
w 54 -53 36 1
w 54 -53 -36 1
w 55 37 0
w 55 -37 1
w 56 55 38 0.28809
w 56 55 -38 0.595378
w 56 -55 38 0.182555
w 56 -55 -38 0.186606
w 57 56 39 0.27836
w 57 56 -39 0.169134
w 57 -56 39 0.0486601
w 57 -56 -39 0.939894
w 58 57 40 0.300563
w 58 57 -40 0.00770556
w 58 -57 40 0.551597
w 58 -57 -40 0.277629
w 59 58 41 1
w 59 58 -41 0
w 59 -58 41 1
w 59 -58 -41 0
w 60 59 42 0.585434
w 60 59 -42 0.0567242
w 60 -59 42 0.741501
w 60 -59 -42 0.96148
w 61 60 43 0.655521
w 61 60 -43 0.37367
w 61 -60 43 0.0166566
w 61 -60 -43 0.797958
w 62 61 44 0.98899
w 62 61 -44 0.0860483
w 62 -61 44 0.522713
w 62 -61 -44 0.171546
w 63 62 45 1
w 63 62 -45 0
w 63 -62 45 0
w 63 -62 -45 1
w 64 63 46 0
w 64 63 -46 1
w 64 -63 46 1
w 64 -63 -46 0
w 65 64 47 0.67958
w 65 64 -47 0.559028
w 65 -64 47 0.614507
w 65 -64 -47 0.544113
w 66 65 48 0
w 66 65 -48 1
w 66 -65 48 1
w 66 -65 -48 1
w 67 66 49 0
w 67 66 -49 1
w 67 -66 49 1
w 67 -66 -49 0
w 68 67 50 1
w 68 67 -50 0
w 68 -67 50 0
w 68 -67 -50 0
w 69 68 51 1
w 69 68 -51 0
w 69 -68 51 0
w 69 -68 -51 1
w 70 69 52 0.883883
w 70 69 -52 0.76957
w 70 -69 52 0.408043
w 70 -69 -52 0.701154
w 71 70 53 1
w 71 70 -53 1
w 71 -70 53 0
w 71 -70 -53 0
w 72 71 54 0.122809
w 72 71 -54 0.0129292
w 72 -71 54 0.665246
w 72 -71 -54 0.213836
w 73 55 0
w 73 -55 1
w 74 73 56 0.739916
w 74 73 -56 0.86533
w 74 -73 56 0.0705641
w 74 -73 -56 0.100727
w 75 74 57 0
w 75 74 -57 1
w 75 -74 57 0
w 75 -74 -57 1
w 76 75 58 0.607638
w 76 75 -58 0.434714
w 76 -75 58 0.987413
w 76 -75 -58 0.185617
w 77 76 59 0
w 77 76 -59 0
w 77 -76 59 0
w 77 -76 -59 1
w 78 77 60 0.335413
w 78 77 -60 0.199395
w 78 -77 60 0.0223691
w 78 -77 -60 0.955116
w 79 78 61 1
w 79 78 -61 0
w 79 -78 61 0
w 79 -78 -61 0
w 80 79 62 0.214572
w 80 79 -62 0.143308
w 80 -79 62 0.852001
w 80 -79 -62 0.285136
w 81 80 63 1
w 81 80 -63 0
w 81 -80 63 1
w 81 -80 -63 1
w 82 81 64 0
w 82 81 -64 1
w 82 -81 64 0
w 82 -81 -64 0
w 83 82 65 0
w 83 82 -65 0
w 83 -82 65 1
w 83 -82 -65 0
w 84 83 66 0.469394
w 84 83 -66 0.642391
w 84 -83 66 0.580541
w 84 -83 -66 0.42451
w 85 84 67 0.615839
w 85 84 -67 0.0448708
w 85 -84 67 0.500635
w 85 -84 -67 0.0192316
w 86 85 68 0
w 86 85 -68 0
w 86 -85 68 1
w 86 -85 -68 0
w 87 86 69 1
w 87 86 -69 0
w 87 -86 69 1
w 87 -86 -69 0
w 88 87 70 0.0146326
w 88 87 -70 0.427341
w 88 -87 70 0.256046
w 88 -87 -70 0.418414
w 89 88 71 0.49291
w 89 88 -71 0.415854
w 89 -88 71 0.675552
w 89 -88 -71 0.935906
w 90 89 72 0.144946
w 90 89 -72 0.578297
w 90 -89 72 0.554567
w 90 -89 -72 0.569455
w 91 73 0.170406
w 91 -73 0.614326
w 92 91 74 1
w 92 91 -74 1
w 92 -91 74 0
w 92 -91 -74 1
w 93 92 75 0.758752
w 93 92 -75 0.715352
w 93 -92 75 0.0298677
w 93 -92 -75 0.0424475
w 94 93 76 0.661576
w 94 93 -76 0.818612
w 94 -93 76 0.526453
w 94 -93 -76 0.0889161
w 95 94 77 1
w 95 94 -77 1
w 95 -94 77 0
w 95 -94 -77 1
w 96 95 78 1
w 96 95 -78 0
w 96 -95 78 1
w 96 -95 -78 1
w 97 96 79 0.02044
w 97 96 -79 0.624662
w 97 -96 79 0.0597207
w 97 -96 -79 0.634766
w 98 97 80 0.249359
w 98 97 -80 0.280633
w 98 -97 80 0.426924
w 98 -97 -80 0.601536
w 99 98 81 0.186002
w 99 98 -81 0.360289
w 99 -98 81 0.525394
w 99 -98 -81 0.21587
w 100 99 82 1
w 100 99 -82 0
w 100 -99 82 0
w 100 -99 -82 1
w 101 100 83 0.296005
w 101 100 -83 0.508534
w 101 -100 83 0.596848
w 101 -100 -83 0.863572
w 102 101 84 0.902887
w 102 101 -84 0.367045
w 102 -101 84 0.204002
w 102 -101 -84 0.353872
w 103 102 85 0
w 103 102 -85 0
w 103 -102 85 1
w 103 -102 -85 0
w 104 103 86 0
w 104 103 -86 1
w 104 -103 86 1
w 104 -103 -86 1
w 105 104 87 1
w 105 104 -87 1
w 105 -104 87 0
w 105 -104 -87 0
w 106 105 88 0.766957
w 106 105 -88 0.662362
w 106 -105 88 0.447908
w 106 -105 -88 0.988304
w 107 106 89 0
w 107 106 -89 0
w 107 -106 89 0
w 107 -106 -89 1
w 108 107 90 0
w 108 107 -90 1
w 108 -107 90 1
w 108 -107 -90 0
w 109 91 0
w 109 -91 1
w 110 109 92 0.642189
w 110 109 -92 0.0372169
w 110 -109 92 0.0541759
w 110 -109 -92 0.651266
w 111 110 93 0.456572
w 111 110 -93 0.940978
w 111 -110 93 0.947474
w 111 -110 -93 0.460504
w 112 111 94 0
w 112 111 -94 1
w 112 -111 94 1
w 112 -111 -94 0
w 113 112 95 0.328241
w 113 112 -95 0.320439
w 113 -112 95 0.579986
w 113 -112 -95 0.55427
w 114 113 96 0.864295
w 114 113 -96 0.288834
w 114 -113 96 0.745827
w 114 -113 -96 0.0121754
w 115 114 97 0.659833
w 115 114 -97 0.5271
w 115 -114 97 0.700476
w 115 -114 -97 0.92771
w 116 115 98 0
w 116 115 -98 1
w 116 -115 98 0
w 116 -115 -98 1
w 117 116 99 0
w 117 116 -99 0
w 117 -116 99 1
w 117 -116 -99 0
w 118 117 100 0.202874
w 118 117 -100 0.556482
w 118 -117 100 0.397591
w 118 -117 -100 0.868753
w 119 118 101 1
w 119 118 -101 1
w 119 -118 101 0
w 119 -118 -101 1
w 120 119 102 0.48416
w 120 119 -102 0.433554
w 120 -119 102 0.0400984
w 120 -119 -102 0.229988
w 121 120 103 1
w 121 120 -103 0
w 121 -120 103 0
w 121 -120 -103 1
w 122 121 104 0.46367
w 122 121 -104 0.234842
w 122 -121 104 0.387429
w 122 -121 -104 0.991727
w 123 122 105 0.608594
w 123 122 -105 0.298667
w 123 -122 105 0.00299361
w 123 -122 -105 0.770736
w 124 123 106 0.57586
w 124 123 -106 0.97361
w 124 -123 106 0.109564
w 124 -123 -106 0.973451
w 125 124 107 0.538577
w 125 124 -107 0.962724
w 125 -124 107 0.0393565
w 125 -124 -107 0.288028
w 126 125 108 0.79062
w 126 125 -108 0.772189
w 126 -125 108 0.965536
w 126 -125 -108 0.830719
w 127 109 1
w 127 -109 0
w 128 127 110 0.891996
w 128 127 -110 0.384095
w 128 -127 110 0.396699
w 128 -127 -110 0.709526
w 129 128 111 0.63154
w 129 128 -111 0.0969549
w 129 -128 111 0.839491
w 129 -128 -111 0.522172
w 130 129 112 0.138158
w 130 129 -112 0.525166
w 130 -129 112 0.476285
w 130 -129 -112 0.691241
w 131 130 113 0
w 131 130 -113 0
w 131 -130 113 1
w 131 -130 -113 0
w 132 131 114 0
w 132 131 -114 0
w 132 -131 114 1
w 132 -131 -114 1
w 133 132 115 0
w 133 132 -115 1
w 133 -132 115 0
w 133 -132 -115 1
w 134 133 116 0.716425
w 134 133 -116 0.293771
w 134 -133 116 0.330079
w 134 -133 -116 0.113123
w 135 134 117 0
w 135 134 -117 1
w 135 -134 117 0
w 135 -134 -117 0
w 136 135 118 0
w 136 135 -118 0
w 136 -135 118 0
w 136 -135 -118 1
w 137 136 119 0.893026
w 137 136 -119 0.731981
w 137 -136 119 0.647538
w 137 -136 -119 0.967503
w 138 137 120 1
w 138 137 -120 0
w 138 -137 120 0
w 138 -137 -120 0
w 139 138 121 0.478088
w 139 138 -121 0.0139297
w 139 -138 121 0.108605
w 139 -138 -121 0.431041
w 140 139 122 1
w 140 139 -122 1
w 140 -139 122 1
w 140 -139 -122 0
w 141 140 123 0.562512
w 141 140 -123 0.00525266
w 141 -140 123 0.813027
w 141 -140 -123 0.579847
w 142 141 124 0
w 142 141 -124 0
w 142 -141 124 1
w 142 -141 -124 1
w 143 142 125 0.957115
w 143 142 -125 0.632895
w 143 -142 125 0.229611
w 143 -142 -125 0.924618
w 144 143 126 0.216531
w 144 143 -126 0.929321
w 144 -143 126 0.0129869
w 144 -143 -126 0.830862
w 145 127 0.491075
w 145 -127 0.844791
w 146 145 128 0.922116
w 146 145 -128 0.260496
w 146 -145 128 0.666401
w 146 -145 -128 0.0695823
w 147 146 129 0.0510698
w 147 146 -129 0.330172
w 147 -146 129 0.682747
w 147 -146 -129 0.613582
w 148 147 130 1
w 148 147 -130 0
w 148 -147 130 1
w 148 -147 -130 1
w 149 148 131 0.671601
w 149 148 -131 0.0155158
w 149 -148 131 0.51084
w 149 -148 -131 0.628716
w 150 149 132 0.740451
w 150 149 -132 0.553334
w 150 -149 132 0.305545
w 150 -149 -132 0.956982
w 151 150 133 1
w 151 150 -133 0
w 151 -150 133 1
w 151 -150 -133 1
w 152 151 134 0.597673
w 152 151 -134 0.731723
w 152 -151 134 0.893132
w 152 -151 -134 0.264074
w 153 152 135 0.863104
w 153 152 -135 0.315144
w 153 -152 135 0.131476
w 153 -152 -135 0.545851
w 154 153 136 0.466901
w 154 153 -136 0.0416242
w 154 -153 136 0.122154
w 154 -153 -136 0.0744128
w 155 154 137 1
w 155 154 -137 1
w 155 -154 137 1
w 155 -154 -137 0
w 156 155 138 1
w 156 155 -138 0
w 156 -155 138 1
w 156 -155 -138 1
w 157 156 139 0
w 157 156 -139 1
w 157 -156 139 0
w 157 -156 -139 1
w 158 157 140 1
w 158 157 -140 1
w 158 -157 140 0
w 158 -157 -140 1
w 159 158 141 0.435912
w 159 158 -141 0.573472
w 159 -158 141 0.918339
w 159 -158 -141 0.981763
w 160 159 142 0.385239
w 160 159 -142 0.0233867
w 160 -159 142 0.624352
w 160 -159 -142 0.459652
w 161 160 143 1
w 161 160 -143 0
w 161 -160 143 1
w 161 -160 -143 1
w 162 161 144 0
w 162 161 -144 1
w 162 -161 144 1
w 162 -161 -144 0
w 163 145 0.741432
w 163 -145 0.845486
w 164 163 146 0
w 164 163 -146 0
w 164 -163 146 1
w 164 -163 -146 1
w 165 164 147 1
w 165 164 -147 0
w 165 -164 147 1
w 165 -164 -147 1
w 166 165 148 0.515643
w 166 165 -148 0.644013
w 166 -165 148 0.0712653
w 166 -165 -148 0.53903
w 167 166 149 0
w 167 166 -149 1
w 167 -166 149 0
w 167 -166 -149 1
w 168 167 150 0
w 168 167 -150 1
w 168 -167 150 0
w 168 -167 -150 0
w 169 168 151 0.538706
w 169 168 -151 0.51837
w 169 -168 151 0.744622
w 169 -168 -151 0.280138
w 170 169 152 1
w 170 169 -152 1
w 170 -169 152 0
w 170 -169 -152 1
w 171 170 153 0.938742
w 171 170 -153 0.023917
w 171 -170 153 0.520867
w 171 -170 -153 0.080557
w 172 171 154 0.0365098
w 172 171 -154 0.72457
w 172 -171 154 0.781208
w 172 -171 -154 0.57554
w 173 172 155 0.312126
w 173 172 -155 0.294182
w 173 -172 155 0.936573
w 173 -172 -155 0.0487095
w 174 173 156 1
w 174 173 -156 0
w 174 -173 156 0
w 174 -173 -156 0
w 175 174 157 0
w 175 174 -157 1
w 175 -174 157 0
w 175 -174 -157 0
w 176 175 158 0.699932
w 176 175 -158 0.608415
w 176 -175 158 0.366536
w 176 -175 -158 0.956162
w 177 176 159 0.305278
w 177 176 -159 0.980079
w 177 -176 159 0.116268
w 177 -176 -159 0.385835
w 178 177 160 0.152778
w 178 177 -160 0.110405
w 178 -177 160 0.47123
w 178 -177 -160 0.728318
w 179 178 161 0
w 179 178 -161 0
w 179 -178 161 1
w 179 -178 -161 1
w 180 179 162 1
w 180 179 -162 1
w 180 -179 162 0
w 180 -179 -162 1
w 181 163 0
w 181 -163 1
w 182 181 164 1
w 182 181 -164 0
w 182 -181 164 0
w 182 -181 -164 0
w 183 182 165 0.687314
w 183 182 -165 0.217368
w 183 -182 165 0.273089
w 183 -182 -165 0.992592
w 184 183 166 1
w 184 183 -166 0
w 184 -183 166 0
w 184 -183 -166 0
w 185 184 167 0
w 185 184 -167 1
w 185 -184 167 1
w 185 -184 -167 0
w 186 185 168 0.974119
w 186 185 -168 0.67963
w 186 -185 168 0.789241
w 186 -185 -168 0.171874
w 187 186 169 0.783572
w 187 186 -169 0.56076
w 187 -186 169 0.808738
w 187 -186 -169 0.133446
w 188 187 170 0.370012
w 188 187 -170 0.202718
w 188 -187 170 0.206178
w 188 -187 -170 0.631218
w 189 188 171 0.893492
w 189 188 -171 0.848586
w 189 -188 171 0.153494
w 189 -188 -171 0.886083
w 190 189 172 0
w 190 189 -172 0
w 190 -189 172 1
w 190 -189 -172 0
w 191 190 173 0
w 191 190 -173 0
w 191 -190 173 0
w 191 -190 -173 1
w 192 191 174 0.408373
w 192 191 -174 0.32802
w 192 -191 174 0.766834
w 192 -191 -174 0.580247
w 193 192 175 1
w 193 192 -175 1
w 193 -192 175 0
w 193 -192 -175 1
w 194 193 176 1
w 194 193 -176 1
w 194 -193 176 0
w 194 -193 -176 0
w 195 194 177 0.126078
w 195 194 -177 0.658565
w 195 -194 177 0.920469
w 195 -194 -177 0.0121612
w 196 195 178 0.463319
w 196 195 -178 0.276671
w 196 -195 178 0.638101
w 196 -195 -178 0.548304
w 197 196 179 1
w 197 196 -179 1
w 197 -196 179 0
w 197 -196 -179 0
w 198 197 180 0.353117
w 198 197 -180 0.772929
w 198 -197 180 0.880151
w 198 -197 -180 0.119951
w 199 181 0
w 199 -181 1
w 200 199 182 0.494182
w 200 199 -182 0.68891
w 200 -199 182 0.354209
w 200 -199 -182 0.52059
w 201 200 183 0.240779
w 201 200 -183 0.753176
w 201 -200 183 0.67765
w 201 -200 -183 0.00775379
w 202 201 184 0.336215
w 202 201 -184 0.928222
w 202 -201 184 0.891415
w 202 -201 -184 0.0408136
w 203 202 185 0
w 203 202 -185 1
w 203 -202 185 0
w 203 -202 -185 0
w 204 203 186 0.843586
w 204 203 -186 0.573622
w 204 -203 186 0.973771
w 204 -203 -186 0.395717
w 205 204 187 0.746699
w 205 204 -187 0.275868
w 205 -204 187 0.0466897
w 205 -204 -187 0.0998747
w 206 205 188 1
w 206 205 -188 1
w 206 -205 188 0
w 206 -205 -188 1
w 207 206 189 0
w 207 206 -189 0
w 207 -206 189 1
w 207 -206 -189 1
w 208 207 190 0
w 208 207 -190 1
w 208 -207 190 0
w 208 -207 -190 1
w 209 208 191 0.639552
w 209 208 -191 0.806578
w 209 -208 191 0.446203
w 209 -208 -191 0.579397
w 210 209 192 1
w 210 209 -192 1
w 210 -209 192 1
w 210 -209 -192 0
w 211 210 193 0.505038
w 211 210 -193 0.775888
w 211 -210 193 0.0945689
w 211 -210 -193 0.551728
w 212 211 194 0.250598
w 212 211 -194 0.268774
w 212 -211 194 0.46982
w 212 -211 -194 0.0955379
w 213 212 195 0
w 213 212 -195 0
w 213 -212 195 0
w 213 -212 -195 1
w 214 213 196 0
w 214 213 -196 1
w 214 -213 196 0
w 214 -213 -196 0
w 215 214 197 0.69217
w 215 214 -197 0.859414
w 215 -214 197 0.644437
w 215 -214 -197 0.138373
w 216 215 198 0
w 216 215 -198 1
w 216 -215 198 0
w 216 -215 -198 1
w 217 199 1
w 217 -199 0
w 218 217 200 0.998867
w 218 217 -200 0.775063
w 218 -217 200 0.284178
w 218 -217 -200 0.87463
w 219 218 201 0
w 219 218 -201 0
w 219 -218 201 1
w 219 -218 -201 0
w 220 219 202 0.929348
w 220 219 -202 0.545045
w 220 -219 202 0.381207
w 220 -219 -202 0.127755
w 221 220 203 0.580575
w 221 220 -203 0.0526372
w 221 -220 203 0.73676
w 221 -220 -203 0.418434
w 222 221 204 0.596174
w 222 221 -204 0.0628704
w 222 -221 204 0.88318
w 222 -221 -204 0.0349845
w 223 222 205 0.076971
w 223 222 -205 0.896778
w 223 -222 205 0.939396
w 223 -222 -205 0.29995
w 224 223 206 0.671847
w 224 223 -206 0.298818
w 224 -223 206 0.352336
w 224 -223 -206 0.956024
w 225 224 207 0
w 225 224 -207 1
w 225 -224 207 1
w 225 -224 -207 1
w 226 225 208 1
w 226 225 -208 0
w 226 -225 208 1
w 226 -225 -208 0
w 227 226 209 0.463901
w 227 226 -209 0.408597
w 227 -226 209 0.608938
w 227 -226 -209 0.200661
w 228 227 210 0.353745
w 228 227 -210 0.796835
w 228 -227 210 0.889901
w 228 -227 -210 0.236926
w 229 228 211 0.601885
w 229 228 -211 0.313897
w 229 -228 211 0.728597
w 229 -228 -211 0.541281
w 230 229 212 0.30587
w 230 229 -212 0.213127
w 230 -229 212 0.912665
w 230 -229 -212 0.658206
w 231 230 213 0
w 231 230 -213 1
w 231 -230 213 1
w 231 -230 -213 1
w 232 231 214 0.0800864
w 232 231 -214 0.0508255
w 232 -231 214 0.963948
w 232 -231 -214 0.02709
w 233 232 215 0.520248
w 233 232 -215 0.490991
w 233 -232 215 0.287445
w 233 -232 -215 0.129186
w 234 233 216 0.114475
w 234 233 -216 0.482931
w 234 -233 216 0.488486
w 234 -233 -216 0.00437574
w 235 217 0.320305
w 235 -217 0.60626
w 236 235 218 0
w 236 235 -218 0
w 236 -235 218 0
w 236 -235 -218 1
w 237 236 219 1
w 237 236 -219 0
w 237 -236 219 0
w 237 -236 -219 1
w 238 237 220 0
w 238 237 -220 0
w 238 -237 220 1
w 238 -237 -220 0
w 239 238 221 1
w 239 238 -221 0
w 239 -238 221 0
w 239 -238 -221 1
w 240 239 222 0.467507
w 240 239 -222 0.197968
w 240 -239 222 0.497767
w 240 -239 -222 0.581982
w 241 240 223 0.986254
w 241 240 -223 0.586358
w 241 -240 223 0.400757
w 241 -240 -223 0.306559
w 242 241 224 1
w 242 241 -224 1
w 242 -241 224 0
w 242 -241 -224 1
w 243 242 225 0.700827
w 243 242 -225 0.642377
w 243 -242 225 0.723215
w 243 -242 -225 0.230647
w 244 243 226 1
w 244 243 -226 0
w 244 -243 226 1
w 244 -243 -226 0
w 245 244 227 0.840358
w 245 244 -227 0.905519
w 245 -244 227 0.0417541
w 245 -244 -227 0.0204206
w 246 245 228 0.84787
w 246 245 -228 0.487927
w 246 -245 228 0.172269
w 246 -245 -228 0.345637
w 247 246 229 0
w 247 246 -229 0
w 247 -246 229 1
w 247 -246 -229 0
w 248 247 230 0.848885
w 248 247 -230 0.688435
w 248 -247 230 0.993912
w 248 -247 -230 0.189043
w 249 248 231 0.704147
w 249 248 -231 0.88987
w 249 -248 231 0.412923
w 249 -248 -231 0.427362
w 250 249 232 1
w 250 249 -232 1
w 250 -249 232 1
w 250 -249 -232 0
w 251 250 233 0.285742
w 251 250 -233 0.0811812
w 251 -250 233 0.462263
w 251 -250 -233 0.327496
w 252 251 234 0
w 252 251 -234 1
w 252 -251 234 1
w 252 -251 -234 1
w 253 235 0.659438
w 253 -235 0.462001
w 254 253 236 0.315705
w 254 253 -236 0.715926
w 254 -253 236 0.491343
w 254 -253 -236 0.16459
w 255 254 237 0
w 255 254 -237 0
w 255 -254 237 1
w 255 -254 -237 0
w 256 255 238 0.616764
w 256 255 -238 0.364021
w 256 -255 238 0.28951
w 256 -255 -238 0.816524
w 257 256 239 0.530332
w 257 256 -239 0.373269
w 257 -256 239 0.208874
w 257 -256 -239 0.611514
w 258 257 240 0.53637
w 258 257 -240 0.713115
w 258 -257 240 0.272096
w 258 -257 -240 0.711736
w 259 258 241 1
w 259 258 -241 1
w 259 -258 241 0
w 259 -258 -241 1
w 260 259 242 1
w 260 259 -242 0
w 260 -259 242 1
w 260 -259 -242 0
w 261 260 243 1
w 261 260 -243 0
w 261 -260 243 1
w 261 -260 -243 0
w 262 261 244 1
w 262 261 -244 0
w 262 -261 244 0
w 262 -261 -244 1
w 263 262 245 0.326668
w 263 262 -245 0.0457974
w 263 -262 245 0.0581892
w 263 -262 -245 0.535543
w 264 263 246 0.893722
w 264 263 -246 0.0719131
w 264 -263 246 0.370426
w 264 -263 -246 0.165818
w 265 264 247 0.673071
w 265 264 -247 0.0467469
w 265 -264 247 0.0163866
w 265 -264 -247 0.635154
w 266 265 248 1
w 266 265 -248 1
w 266 -265 248 0
w 266 -265 -248 0
w 267 266 249 0
w 267 266 -249 0
w 267 -266 249 0
w 267 -266 -249 1
w 268 267 250 0.190847
w 268 267 -250 0.775828
w 268 -267 250 0.86125
w 268 -267 -250 0.594383
w 269 268 251 0
w 269 268 -251 1
w 269 -268 251 0
w 269 -268 -251 1
w 270 269 252 0
w 270 269 -252 1
w 270 -269 252 0
w 270 -269 -252 0
w 271 253 0
w 271 -253 1
w 272 271 254 0.328543
w 272 271 -254 0.673053
w 272 -271 254 0.100322
w 272 -271 -254 0.430561
w 273 272 255 0.548855
w 273 272 -255 0.109553
w 273 -272 255 0.941317
w 273 -272 -255 0.460603
w 274 273 256 0.0926494
w 274 273 -256 0.0104765
w 274 -273 256 0.843629
w 274 -273 -256 0.283497
w 275 274 257 0.704879
w 275 274 -257 0.87788
w 275 -274 257 0.0775981
w 275 -274 -257 0.251049
w 276 275 258 0.414689
w 276 275 -258 0.855409
w 276 -275 258 0.255526
w 276 -275 -258 0.40909
w 277 276 259 0
w 277 276 -259 1
w 277 -276 259 0
w 277 -276 -259 0
w 278 277 260 0.728035
w 278 277 -260 0.424733
w 278 -277 260 0.484871
w 278 -277 -260 0.828357
w 279 278 261 0.0708668
w 279 278 -261 0.377212
w 279 -278 261 0.964846
w 279 -278 -261 0.0121838
w 280 279 262 0.815621
w 280 279 -262 0.104833
w 280 -279 262 0.848292
w 280 -279 -262 0.659251
w 281 280 263 1
w 281 280 -263 0
w 281 -280 263 0
w 281 -280 -263 0
w 282 281 264 0.065141
w 282 281 -264 0.126883
w 282 -281 264 0.470588
w 282 -281 -264 0.320667
w 283 282 265 0.824078
w 283 282 -265 0.1047
w 283 -282 265 0.309892
w 283 -282 -265 0.841467
w 284 283 266 0
w 284 283 -266 1
w 284 -283 266 1
w 284 -283 -266 1
w 285 284 267 0
w 285 284 -267 0
w 285 -284 267 1
w 285 -284 -267 1
w 286 285 268 0.612885
w 286 285 -268 0.261383
w 286 -285 268 0.794464
w 286 -285 -268 0.461177
w 287 286 269 0.182794
w 287 286 -269 0.0957736
w 287 -286 269 0.284764
w 287 -286 -269 0.449004
w 288 287 270 0.899943
w 288 287 -270 0.514145
w 288 -287 270 0.934852
w 288 -287 -270 0.370531
w 289 271 0.470825
w 289 -271 0.194609
w 290 289 272 0.780718
w 290 289 -272 0.0360758
w 290 -289 272 0.140402
w 290 -289 -272 0.902427
w 291 290 273 0.766024
w 291 290 -273 0.509007
w 291 -290 273 0.00343564
w 291 -290 -273 0.24694
w 292 291 274 0
w 292 291 -274 0
w 292 -291 274 1
w 292 -291 -274 1
w 293 292 275 0.670549
w 293 292 -275 0.852568
w 293 -292 275 0.874719
w 293 -292 -275 0.853343
w 294 293 276 0.159483
w 294 293 -276 0.302346
w 294 -293 276 0.75631
w 294 -293 -276 0.059426
w 295 294 277 0.691162
w 295 294 -277 0.429957
w 295 -294 277 0.651303
w 295 -294 -277 0.161987
w 296 295 278 0.590814
w 296 295 -278 0.942705
w 296 -295 278 0.660642
w 296 -295 -278 0.731216
w 297 296 279 0.266219
w 297 296 -279 0.49724
w 297 -296 279 0.354139
w 297 -296 -279 0.269655
w 298 297 280 0.540593
w 298 297 -280 0.0481605
w 298 -297 280 0.436881
w 298 -297 -280 0.416678
w 299 298 281 1
w 299 298 -281 1
w 299 -298 281 1
w 299 -298 -281 0
w 300 299 282 0.240462
w 300 299 -282 0.425169
w 300 -299 282 0.242916
w 300 -299 -282 0.996772
w 301 300 283 0
w 301 300 -283 1
w 301 -300 283 0
w 301 -300 -283 0
w 302 301 284 0.301524
w 302 301 -284 0.792626
w 302 -301 284 0.19976
w 302 -301 -284 0.0327399
w 303 302 285 0.465979
w 303 302 -285 0.52998
w 303 -302 285 0.991897
w 303 -302 -285 0.735634
w 304 303 286 1
w 304 303 -286 0
w 304 -303 286 1
w 304 -303 -286 0
w 305 304 287 0
w 305 304 -287 1
w 305 -304 287 0
w 305 -304 -287 0
w 306 305 288 0.755927
w 306 305 -288 0.792861
w 306 -305 288 0.219882
w 306 -305 -288 0.752699
w 307 289 1
w 307 -289 0
w 308 307 290 0
w 308 307 -290 1
w 308 -307 290 0
w 308 -307 -290 1
w 309 308 291 1
w 309 308 -291 1
w 309 -308 291 1
w 309 -308 -291 0
w 310 309 292 1
w 310 309 -292 0
w 310 -309 292 1
w 310 -309 -292 0
w 311 310 293 1
w 311 310 -293 1
w 311 -310 293 0
w 311 -310 -293 0
w 312 311 294 0.23089
w 312 311 -294 0.655104
w 312 -311 294 0.309141
w 312 -311 -294 0.207856
w 313 312 295 1
w 313 312 -295 1
w 313 -312 295 0
w 313 -312 -295 1
w 314 313 296 0.604364
w 314 313 -296 0.571467
w 314 -313 296 0.697026
w 314 -313 -296 0.894919
w 315 314 297 1
w 315 314 -297 1
w 315 -314 297 1
w 315 -314 -297 0
w 316 315 298 0.630343
w 316 315 -298 0.167055
w 316 -315 298 0.411875
w 316 -315 -298 0.762842
w 317 316 299 0
w 317 316 -299 0
w 317 -316 299 1
w 317 -316 -299 0
w 318 317 300 0.0763481
w 318 317 -300 0.0825868
w 318 -317 300 0.473875
w 318 -317 -300 0.385489
w 319 318 301 1
w 319 318 -301 0
w 319 -318 301 0
w 319 -318 -301 1
w 320 319 302 0.425206
w 320 319 -302 0.653001
w 320 -319 302 0.438417
w 320 -319 -302 0.122232
w 321 320 303 0.741009
w 321 320 -303 0.110781
w 321 -320 303 0.526019
w 321 -320 -303 0.974488
w 322 321 304 1
w 322 321 -304 0
w 322 -321 304 0
w 322 -321 -304 0
w 323 322 305 0
w 323 322 -305 0
w 323 -322 305 1
w 323 -322 -305 1
w 324 323 306 1
w 324 323 -306 1
w 324 -323 306 1
w 324 -323 -306 0